NAME : amz2838.94474_88474.tour
COMMENT : Cost = 94474_88474
COMMENT : Found by LKH-AMZ [Keld Helsgaun] Sun May 11 14:13:34 2025
COMMENT : TW viol.: 0 #: 0
TYPE : TOUR
DIMENSION : 96
TOUR_SECTION
7
30
60
32
20
56
44
65
47
19
21
94
39
10
69
31
2
93
67
29
50
16
17
25
77
86
92
48
58
9
45
63
40
26
36
91
27
64
89
51
1
68
41
3
4
23
76
18
22
81
54
82
14
57
59
52
83
66
53
84
73
90
55
49
33
12
85
11
87
13
75
6
78
72
62
70
28
43
96
34
61
46
80
5
35
74
88
79
24
95
71
38
15
42
37
8
-1
EOF
